p tw 67 1665
0 1
0 2
0 3
0 4
0 5
0 6
0 7
0 8
0 9
0 10
0 11
0 12
0 13
0 22
0 23
0 36
0 37
0 41
0 43
0 45
0 46
0 47
0 48
0 49
0 15
0 21
0 33
0 50
0 59
0 60
0 61
0 19
0 20
0 40
0 42
0 51
0 62
0 63
0 38
0 56
0 64
0 65
0 14
0 16
0 26
0 31
0 32
0 52
0 18
0 25
0 30
0 66
0 24
0 29
0 57
0 35
0 53
0 39
0 54
0 27
0 34
1 2
1 3
1 4
1 5
1 6
1 7
1 8
1 9
1 10
1 11
1 12
1 13
1 15
1 21
1 33
1 41
1 50
1 59
1 60
1 61
1 16
1 20
1 26
1 39
1 40
1 46
1 64
1 18
1 31
1 35
1 43
1 49
1 51
1 58
1 63
1 14
1 23
1 27
1 29
1 42
1 45
1 22
1 47
1 54
1 62
1 19
1 24
1 37
1 38
1 52
1 55
1 57
1 66
2 3
2 4
2 5
2 6
2 7
2 8
2 9
2 10
2 11
2 12
2 13
2 14
2 15
2 16
2 17
2 18
2 19
2 20
2 21
2 22
2 23
2 24
2 26
2 31
2 32
2 33
2 34
2 35
2 36
2 37
2 38
2 39
2 40
2 47
2 57
2 58
2 41
2 46
2 48
2 52
2 50
2 64
2 27
2 51
2 55
2 65
2 66
3 4
3 5
3 6
3 7
3 8
3 9
3 10
3 11
3 12
3 13
3 16
3 26
3 27
3 28
3 34
3 39
3 47
3 48
3 50
3 51
3 52
3 22
3 32
3 40
3 57
3 58
3 14
3 18
3 25
3 30
3 36
3 37
3 56
3 65
3 66
3 15
3 24
3 29
3 41
3 42
3 63
3 64
3 31
3 43
3 44
3 61
3 19
3 20
3 35
3 45
3 53
3 60
3 49
3 54
3 62
4 5
4 6
4 7
4 8
4 9
4 10
4 11
4 12
4 13
4 14
4 15
4 16
4 17
4 18
4 19
4 20
4 21
4 22
4 23
4 24
4 26
4 32
4 39
4 40
4 47
4 57
4 58
4 41
4 46
4 50
4 64
4 35
4 36
4 45
4 51
4 53
4 60
4 28
4 30
4 52
4 54
4 66
5 6
5 7
5 8
5 9
5 10
5 11
5 12
5 13
5 16
5 26
5 27
5 28
5 34
5 39
5 47
5 48
5 50
5 51
5 52
5 18
5 21
5 22
5 23
5 31
5 32
5 40
5 53
5 56
5 66
5 14
5 15
5 24
5 29
5 41
5 42
5 57
5 63
5 64
5 35
5 43
5 49
5 58
5 59
5 60
5 25
5 54
5 38
6 7
6 8
6 9
6 10
6 11
6 12
6 13
6 20
6 22
6 24
6 25
6 26
6 27
6 28
6 29
6 30
6 16
6 17
6 31
6 34
6 39
6 40
6 41
6 42
6 43
6 44
6 23
6 36
6 37
6 45
6 46
6 47
6 48
6 49
6 15
6 21
6 33
6 50
6 59
6 60
6 61
6 64
6 14
6 18
6 19
6 66
6 38
6 57
6 65
7 8
7 9
7 10
7 11
7 12
7 13
7 20
7 22
7 24
7 25
7 26
7 27
7 28
7 29
7 30
7 16
7 34
7 39
7 47
7 48
7 50
7 51
7 52
7 19
7 36
7 37
7 40
7 42
7 45
7 61
7 62
7 63
7 14
7 18
7 56
7 65
7 66
7 15
7 31
7 43
7 44
7 35
7 49
7 54
7 33
7 41
7 57
7 58
7 60
8 9
8 10
8 11
8 12
8 13
8 20
8 22
8 24
8 25
8 26
8 27
8 28
8 29
8 30
8 15
8 37
8 38
8 41
8 45
8 48
8 51
8 56
8 59
8 64
8 65
8 14
8 16
8 23
8 35
8 42
8 39
8 57
9 10
9 11
9 12
9 13
9 20
9 22
9 24
9 25
9 26
9 27
9 28
9 29
9 30
9 18
9 31
9 32
9 33
9 34
9 35
9 36
9 37
9 38
9 39
9 19
9 40
9 42
9 45
9 51
9 61
9 62
9 63
9 16
9 41
9 46
9 50
9 64
9 14
9 23
9 55
9 65
9 66
9 47
9 49
9 54
9 52
9 60
9 15
9 57
9 58
9 17
9 21
10 11
10 12
10 13
10 16
10 17
10 29
10 31
10 34
10 39
10 40
10 41
10 42
10 43
10 44
10 22
10 26
10 32
10 47
10 57
10 58
10 14
10 37
10 46
10 48
10 52
10 15
10 61
10 18
10 19
10 23
10 27
10 36
10 50
10 66
10 20
10 35
10 45
10 30
10 33
10 54
10 24
10 38
10 65
11 12
11 13
11 15
11 21
11 33
11 41
11 50
11 59
11 60
11 61
11 37
11 38
11 45
11 48
11 51
11 56
11 64
11 65
11 16
11 20
11 26
11 39
11 40
11 46
11 19
11 23
11 25
11 29
11 47
11 53
11 54
11 24
11 27
11 31
11 36
11 55
11 66
11 28
11 32
11 52
11 63
11 49
11 57
11 14
11 34
11 18
11 30
11 35
11 44
11 58
12 13
12 17
12 18
12 41
12 42
12 46
12 47
12 49
12 51
12 52
12 53
12 54
12 55
12 56
12 15
12 32
12 34
12 36
12 48
12 62
12 16
12 19
12 20
12 35
12 40
12 45
12 50
12 60
13 22
13 23
13 36
13 37
13 41
13 43
13 45
13 46
13 47
13 48
13 49
13 14
13 18
13 25
13 30
13 50
13 56
13 65
13 66
13 15
13 17
13 32
13 34
13 42
13 54
13 62
13 16
13 19
13 21
13 29
13 33
13 51
13 53
13 24
13 26
13 38
13 52
14 15
14 16
14 17
14 18
14 19
14 20
14 21
14 22
14 23
14 24
14 26
14 31
14 32
14 37
14 41
14 46
14 48
14 52
14 25
14 30
14 36
14 47
14 50
14 56
14 65
14 66
14 29
14 42
14 51
14 57
14 63
14 64
14 40
14 43
14 44
14 61
14 27
14 39
14 35
14 45
14 34
14 49
14 53
14 54
14 60
15 16
15 17
15 18
15 19
15 20
15 21
15 22
15 23
15 24
15 33
15 41
15 50
15 59
15 60
15 61
15 37
15 38
15 45
15 48
15 51
15 56
15 64
15 65
15 29
15 42
15 57
15 63
15 31
15 40
15 43
15 44
15 52
15 32
15 34
15 36
15 46
15 54
15 62
15 25
15 26
15 28
15 39
15 58
15 49
15 53
16 17
16 18
16 19
16 20
16 21
16 22
16 23
16 24
16 29
16 31
16 34
16 39
16 40
16 41
16 42
16 43
16 44
16 26
16 27
16 28
16 47
16 48
16 50
16 51
16 52
16 32
16 37
16 46
16 64
16 36
16 66
16 35
16 45
16 53
16 60
16 49
16 58
16 59
16 63
16 25
16 33
16 54
16 38
17 18
17 19
17 20
17 21
17 22
17 23
17 24
17 29
17 31
17 34
17 39
17 40
17 41
17 42
17 43
17 44
17 46
17 47
17 49
17 51
17 52
17 53
17 54
17 55
17 56
17 32
17 36
17 48
17 62
17 28
17 30
17 66
18 19
18 20
18 21
18 22
18 23
18 24
18 26
18 31
18 32
18 33
18 34
18 35
18 36
18 37
18 38
18 39
18 41
18 42
18 46
18 47
18 49
18 51
18 52
18 53
18 54
18 55
18 56
18 40
18 66
18 25
18 30
18 50
18 65
18 48
18 62
18 27
18 44
18 43
18 58
18 59
18 60
18 63
19 20
19 21
19 22
19 23
19 24
19 36
19 37
19 40
19 42
19 45
19 51
19 61
19 62
19 63
19 27
19 39
19 44
19 50
19 66
19 35
19 53
19 60
19 25
19 29
19 33
19 47
19 54
19 26
19 38
19 49
19 52
19 55
19 57
20 21
20 22
20 23
20 24
20 25
20 26
20 27
20 28
20 29
20 30
20 36
20 37
20 40
20 42
20 45
20 51
20 61
20 62
20 63
20 39
20 41
20 46
20 50
20 64
20 35
20 53
20 60
20 31
20 33
20 57
20 58
20 47
20 52
20 54
20 66
21 22
21 23
21 24
21 33
21 41
21 50
21 59
21 60
21 61
21 31
21 32
21 40
21 47
21 52
21 53
21 56
21 66
21 25
21 29
21 51
21 54
21 34
21 49
21 27
21 30
21 35
21 36
21 44
21 46
21 55
21 58
21 26
21 38
21 28
21 39
22 23
22 24
22 25
22 26
22 27
22 28
22 29
22 30
22 36
22 37
22 41
22 43
22 45
22 46
22 47
22 48
22 49
22 32
22 39
22 40
22 57
22 58
22 31
22 52
22 53
22 56
22 66
22 35
22 42
22 50
22 54
22 62
22 38
22 65
23 24
23 36
23 37
23 41
23 43
23 45
23 46
23 47
23 48
23 49
23 31
23 32
23 40
23 52
23 53
23 56
23 66
23 27
23 39
23 44
23 50
23 29
23 35
23 42
23 25
23 33
23 51
23 54
23 38
23 57
23 65
24 25
24 26
24 27
24 28
24 29
24 30
24 41
24 42
24 50
24 51
24 57
24 63
24 64
24 31
24 33
24 36
24 37
24 55
24 65
24 66
24 38
24 49
24 52
24 60
24 39
24 48
24 47
24 53
24 54
25 26
25 27
25 28
25 29
25 30
25 36
25 37
25 47
25 50
25 56
25 65
25 66
25 33
25 51
25 53
25 54
25 31
25 39
25 41
25 57
25 58
25 60
25 34
25 49
25 35
25 44
25 46
25 55
26 27
26 28
26 29
26 30
26 31
26 32
26 33
26 34
26 35
26 36
26 37
26 38
26 39
26 47
26 48
26 50
26 51
26 52
26 40
26 57
26 58
26 41
26 46
26 64
26 43
26 49
26 59
26 60
26 63
26 55
26 66
26 42
26 54
26 53
27 28
27 29
27 30
27 34
27 39
27 47
27 48
27 50
27 51
27 52
27 36
27 40
27 44
27 66
27 35
27 42
27 45
27 31
27 33
27 37
27 55
27 65
27 32
27 41
27 46
27 60
27 63
27 43
27 54
27 56
27 58
28 29
28 30
28 34
28 39
28 47
28 48
28 50
28 51
28 52
28 31
28 32
28 41
28 46
28 55
28 60
28 63
28 66
28 33
28 57
28 58
28 54
29 30
29 31
29 34
29 39
29 40
29 41
29 42
29 43
29 44
29 50
29 51
29 57
29 63
29 64
29 35
29 45
29 33
29 47
29 53
29 54
30 36
30 37
30 47
30 50
30 56
30 65
30 66
30 31
30 33
30 35
30 42
30 43
30 46
30 54
30 34
30 44
30 55
30 58
30 39
30 41
30 51
30 52
31 32
31 33
31 34
31 35
31 36
31 37
31 38
31 39
31 40
31 41
31 42
31 43
31 44
31 46
31 48
31 52
31 47
31 53
31 56
31 66
31 61
31 49
31 51
31 58
31 59
31 60
31 63
31 55
31 65
31 57
31 54
32 33
32 34
32 35
32 36
32 37
32 38
32 39
32 40
32 47
32 57
32 58
32 41
32 46
32 48
32 52
32 53
32 56
32 66
32 42
32 54
32 62
32 55
32 60
32 63
33 34
33 35
33 36
33 37
33 38
33 39
33 41
33 50
33 59
33 60
33 61
33 47
33 51
33 53
33 54
33 55
33 65
33 66
33 57
33 58
33 42
33 43
33 46
34 35
34 36
34 37
34 38
34 39
34 40
34 41
34 42
34 43
34 44
34 47
34 48
34 50
34 51
34 52
34 46
34 54
34 56
34 62
34 49
34 53
34 60
34 55
34 58
35 36
35 37
35 38
35 39
35 40
35 45
35 50
35 51
35 53
35 60
35 43
35 49
35 58
35 59
35 63
35 42
35 47
35 54
35 62
35 46
35 44
35 55
35 56
36 37
36 38
36 39
36 41
36 43
36 45
36 46
36 47
36 48
36 49
36 40
36 42
36 51
36 61
36 62
36 63
36 50
36 56
36 65
36 66
36 54
36 44
36 53
36 60
36 55
36 58
37 38
37 39
37 41
37 43
37 45
37 46
37 47
37 48
37 49
37 40
37 42
37 51
37 61
37 62
37 63
37 56
37 59
37 64
37 65
37 52
37 50
37 66
37 55
37 57
37 60
38 39
38 41
38 45
38 48
38 51
38 56
38 59
38 64
38 65
38 49
38 52
38 55
38 57
38 60
38 66
38 47
38 53
38 54
39 40
39 41
39 42
39 43
39 44
39 47
39 48
39 50
39 51
39 52
39 57
39 58
39 46
39 64
39 66
39 49
39 54
39 62
39 60
39 65
40 41
40 42
40 43
40 44
40 47
40 57
40 58
40 45
40 51
40 61
40 62
40 63
40 46
40 50
40 64
40 52
40 53
40 56
40 66
40 48
40 60
40 49
40 54
41 42
41 43
41 44
41 45
41 46
41 47
41 48
41 49
41 51
41 52
41 53
41 54
41 55
41 56
41 50
41 59
41 60
41 61
41 64
41 65
41 57
41 63
41 62
41 66
41 58
42 43
42 44
42 46
42 47
42 49
42 51
42 52
42 53
42 54
42 55
42 56
42 45
42 61
42 62
42 63
42 50
42 57
42 64
42 48
43 44
43 45
43 46
43 47
43 48
43 49
43 52
43 61
43 51
43 58
43 59
43 60
43 63
43 54
44 48
44 52
44 61
44 50
44 66
44 46
44 47
44 55
44 56
44 58
45 46
45 47
45 48
45 49
45 51
45 61
45 62
45 63
45 56
45 59
45 64
45 65
45 50
45 53
45 60
46 47
46 48
46 49
46 51
46 52
46 53
46 54
46 55
46 56
46 50
46 64
46 62
46 60
46 63
46 66
46 58
47 48
47 49
47 50
47 51
47 52
47 53
47 54
47 55
47 56
47 57
47 58
47 66
47 65
47 62
48 49
48 50
48 51
48 52
48 56
48 59
48 64
48 65
48 61
48 54
48 62
48 57
49 51
49 52
49 53
49 54
49 55
49 56
49 58
49 59
49 60
49 63
49 50
49 62
49 57
49 66
50 51
50 52
50 59
50 60
50 61
50 64
50 56
50 65
50 66
50 57
50 63
50 53
50 54
50 62
51 52
51 53
51 54
51 55
51 56
51 61
51 62
51 63
51 59
51 64
51 65
51 57
51 60
51 58
51 66
52 53
52 54
52 55
52 56
52 66
52 61
52 60
52 63
52 57
53 54
53 55
53 56
53 66
53 60
54 55
54 56
54 62
54 60
54 66
55 56
55 65
55 66
55 60
55 63
55 57
55 58
56 59
56 64
56 65
56 66
56 62
56 58
57 58
57 63
57 64
57 60
57 66
57 65
58 59
58 60
58 63
59 60
59 61
59 64
59 65
59 63
60 61
60 63
60 66
61 62
61 63
62 63
63 64
63 66
64 65
65 66
